language ESSENCE' 1.0
letting AssignmentMatrix be [[1, 1, 0, 1, 1, 0, 0, 1, 0, 1, 0, 1, 0, 0, 0, 0, 0, 0, 1], 
[0, 1, 0, 1, 0, 0, 0, 1, 1, 0, 0, 0, 1, 0, 0, 0, 0, 0, 1], 
[0, 0, 0, 0, 0, 0, 0, 0, 0, 0, 0, 0, 0, 0, 0, 0, 0, 0, 0], 
[0, 0, 1, 0, 0, 0, 0, 0, 0, 0, 1, 0, 0, 0, 0, 0, 0, 1, 0], 
[1, 0, 0, 0, 0, 0, 0, 0, 0, 0, 0, 0, 0, 0, 1, 0, 0, 0, 0]]
letting CPU be [8, 4, 4, 4, 2, 63, 21, 4, 2, 2, 4, 2, 2, 47, 4, 2, 54, 4, 4]
letting Memory be [15000, 15000, 7500, 15000, 3750, 488004, 488015, 15000, 3750, 3750, 7500, 3750, 3750, 488005, 7500, 488002, 488004, 7500, 15000]
letting Price be [420, 350, 210, 350, 116, 0, 0, 350, 128, 116, 210, 116, 116, 1, 210, 7, 1, 210, 350]
letting Storage be [2000, 4000, 2000, 4000, 2000, 12004, 12014, 4000, 2000, 2000, 2000, 2000, 2000, 12006, 2000, 12002, 12004, 2000, 4000]
letting VMType be [278, 316, 341, 316, 433, 1, 1, 316, 461, 433, 341, 433, 433, 1, 341, 1, 1, 341, 316]
